networks/zoo_43_420/zoo_43_420-lower.sol
<?xml version = "1.0" encoding="UTF-8" standalone="yes"?>
<CPLEXSolution version="1.2">
 <header
   problemName="networks/zoo_43_420/zoo_43_420-lower.lp"
   solutionName="incumbent"
   solutionIndex="-1"
   objectiveValue="23"
   solutionTypeValue="3"
   solutionTypeString="primal"
   solutionStatusValue="101"
   solutionStatusString="integer optimal solution"
   solutionMethodString="mip"
   primalFeasible="1"
   dualFeasible="1"
   MIPNodes="0"
   MIPIterations="951"
   writeLevel="3"/>
 <quality
   epInt="1.0000000000000001e-05"
   epRHS="9.9999999999999995e-07"
   maxIntInfeas="0"
   maxPrimalInfeas="0"
   maxX="1"
   maxSlack="1"/>
 <variables>
  <variable name="Y(2,3)" index="44" value="1"/>
  <variable name="Y(37,18)" index="1529" value="1"/>
  <variable name="Y(44,5)" index="1810" value="1"/>
  <variable name="Y(53,14)" index="2197" value="1"/>
  <variable name="Y(71,12)" index="2951" value="1"/>
  <variable name="Y(78,19)" index="3252" value="1"/>
  <variable name="Y(85,9)" index="3536" value="1"/>
  <variable name="Y(107,8)" index="4459" value="1"/>
  <variable name="Y(112,13)" index="4674" value="1"/>
  <variable name="Y(135,16)" index="5643" value="1"/>
  <variable name="Y(144,4)" index="6009" value="1"/>
  <variable name="Y(150,11)" index="6268" value="1"/>
  <variable name="Y(174,15)" index="7280" value="1"/>
  <variable name="Y(182,2)" index="7603" value="1"/>
  <variable name="Y(216,17)" index="9046" value="1"/>
  <variable name="Y(221,1)" index="9240" value="1"/>
  <variable name="Y(247,7)" index="10338" value="1"/>
  <variable name="Y(289,9)" index="12104" value="1"/>
  <variable name="Y(290,10)" index="12147" value="1"/>
  <variable name="Y(316,16)" index="13245" value="1"/>
  <variable name="Y(326,6)" index="13655" value="1"/>
  <variable name="Y(340,21)" index="14258" value="1"/>
  <variable name="Y(379,20)" index="15895" value="1"/>
  <variable name="X(1,4,2)" index="17641" value="1"/>
  <variable name="X(1,13,78)" index="18137" value="1"/>
  <variable name="X(1,23,221)" index="18700" value="1"/>
  <variable name="X(2,7,247)" index="19146" value="1"/>
  <variable name="X(2,20,37)" index="19356" value="1"/>
  <variable name="X(2,24,182)" index="19921" value="1"/>
  <variable name="X(3,4,144)" index="20303" value="1"/>
  <variable name="X(3,14,53)" index="20632" value="1"/>
  <variable name="X(3,25,2)" index="21001" value="1"/>
  <variable name="X(4,1,78)" index="21497" value="1"/>
  <variable name="X(4,3,2)" index="21841" value="1"/>
  <variable name="X(4,26,144)" index="22403" value="1"/>
  <variable name="X(5,8,107)" index="22786" value="1"/>
  <variable name="X(5,9,85)" index="23184" value="1"/>
  <variable name="X(5,27,44)" index="23563" value="1"/>
  <variable name="X(6,9,107)" index="24046" value="1"/>
  <variable name="X(6,15,112)" index="24471" value="1"/>
  <variable name="X(6,28,326)" index="25105" value="1"/>
  <variable name="X(7,2,182)" index="25381" value="1"/>
  <variable name="X(7,8,135)" index="25754" value="1"/>
  <variable name="X(7,29,247)" index="26286" value="1"/>
  <variable name="X(8,5,44)" index="26503" value="1"/>
  <variable name="X(8,7,182)" index="27061" value="1"/>
  <variable name="X(8,10,290)" index="27589" value="1"/>
  <variable name="X(8,18,135)" index="27854" value="1"/>
  <variable name="X(8,20,150)" index="28289" value="1"/>
  <variable name="X(8,30,107)" index="28666" value="1"/>
  <variable name="X(9,5,107)" index="29086" value="1"/>
  <variable name="X(9,6,85)" index="29484" value="1"/>
  <variable name="X(9,15,174)" index="29993" value="1"/>
  <variable name="X(9,31,289)" index="30528" value="1"/>
  <variable name="X(10,8,182)" index="30841" value="1"/>
  <variable name="X(10,32,290)" index="31369" value="1"/>
  <variable name="X(11,19,216)" index="31715" value="1"/>
  <variable name="X(11,20,379)" index="32298" value="1"/>
  <variable name="X(11,33,150)" index="32489" value="1"/>
  <variable name="X(12,19,78)" index="32837" value="1"/>
  <variable name="X(12,21,340)" index="33519" value="1"/>
  <variable name="X(12,34,71)" index="33670" value="1"/>
  <variable name="X(13,1,221)" index="34240" value="1"/>
  <variable name="X(13,14,247)" index="34686" value="1"/>
  <variable name="X(13,21,78)" index="34937" value="1"/>
  <variable name="X(13,35,112)" index="35391" value="1"/>
  <variable name="X(14,3,144)" index="35843" value="1"/>
  <variable name="X(14,13,112)" index="36231" value="1"/>
  <variable name="X(14,20,247)" index="36786" value="1"/>
  <variable name="X(14,36,53)" index="37012" value="1"/>
  <variable name="X(15,6,326)" index="37705" value="1"/>
  <variable name="X(15,9,289)" index="38088" value="1"/>
  <variable name="X(15,16,135)" index="38354" value="1"/>
  <variable name="X(15,18,112)" index="38751" value="1"/>
  <variable name="X(15,37,174)" index="39233" value="1"/>
  <variable name="X(16,15,326)" index="39805" value="1"/>
  <variable name="X(16,17,316)" index="40215" value="1"/>
  <variable name="X(16,38,135)" index="40454" value="1"/>
  <variable name="X(17,16,326)" index="41065" value="1"/>
  <variable name="X(17,18,340)" index="41499" value="1"/>
  <variable name="X(17,39,216)" index="41795" value="1"/>
  <variable name="X(18,8,290)" index="42289" value="1"/>
  <variable name="X(18,15,135)" index="42554" value="1"/>
  <variable name="X(18,17,216)" index="43055" value="1"/>
  <variable name="X(18,19,340)" index="43599" value="1"/>
  <variable name="X(18,20,112)" index="43791" value="1"/>
  <variable name="X(18,40,37)" index="44136" value="1"/>
  <variable name="X(19,11,379)" index="44898" value="1"/>
  <variable name="X(19,12,340)" index="45279" value="1"/>
  <variable name="X(19,18,216)" index="45575" value="1"/>
  <variable name="X(19,41,78)" index="45857" value="1"/>
  <variable name="X(20,2,247)" index="46446" value="1"/>
  <variable name="X(20,8,44)" index="46663" value="1"/>
  <variable name="X(20,11,150)" index="47189" value="1"/>
  <variable name="X(20,14,112)" index="47571" value="1"/>
  <variable name="X(20,18,37)" index="47916" value="1"/>
  <variable name="X(20,42,379)" index="48678" value="1"/>
  <variable name="X(21,12,78)" index="48797" value="1"/>
  <variable name="X(21,13,221)" index="49360" value="1"/>
  <variable name="X(21,43,340)" index="49899" value="1"/>
 </variables>
</CPLEXSolution>
